#N HF/STO-3G OPT FREQ Geom=Connectivity 

C2H4 MARIA CORDOBA

0 1
C 
C 1 B1
H 2 B2 1 A1
H 2 B3 1 A2 3 D1
H 1 B4 2 A3 3 D2
H 1 B5 2 A4 3 D3

B1 1.339165002
B2 1.102268100
B3 1.102265232
B4 1.102265232
B5 1.102268100
A1 121.0880274
A2 121.0884039
A3 121.0884039
A4 121.0880274
D1 -180.0000000
D2 -0.000000000
D3 180.0000000

1 2 2 5 1 6 1
2 1 2 3 1 4 1
3 2 1
4 2 1
5 1 1
6 1 1

